NAME          
ROWS
 N  OBJ
 L  c1
COLUMNS
    MARKER    'MARKER'                 'INTORG'
    x[1]      c1        78
    x[1]      OBJ       -76
    x[2]      c1        62
    x[2]      OBJ       -111
    x[3]      c1        255
    x[3]      OBJ       -298
    x[4]      c1        535
    x[4]      OBJ       -503
    x[5]      c1        437
    x[5]      OBJ       -534
    x[6]      c1        637
    x[6]      OBJ       -734
    x[7]      c1        317
    x[7]      OBJ       -400
    x[8]      c1        46
    x[8]      OBJ       -43
    x[9]      c1        56
    x[9]      OBJ       -62
    x[10]     c1        683
    x[10]     OBJ       -592
    x[11]     c1        298
    x[11]     OBJ       -208
    x[12]     c1        862
    x[12]     OBJ       -815
    x[13]     c1        189
    x[13]     OBJ       -261
    x[14]     c1        476
    x[14]     OBJ       -473
    x[15]     c1        129
    x[15]     OBJ       -214
    x[16]     c1        934
    x[16]     OBJ       -887
    x[17]     c1        558
    x[17]     OBJ       -465
    x[18]     c1        949
    x[18]     OBJ       -963
    x[19]     c1        261
    x[19]     OBJ       -200
    x[20]     c1        342
    x[20]     OBJ       -332
RHS
    rhs       c1        4052
RANGES
BOUNDS
 BV bounds    x[1]
 BV bounds    x[2]
 BV bounds    x[3]
 BV bounds    x[4]
 BV bounds    x[5]
 BV bounds    x[6]
 BV bounds    x[7]
 BV bounds    x[8]
 BV bounds    x[9]
 BV bounds    x[10]
 BV bounds    x[11]
 BV bounds    x[12]
 BV bounds    x[13]
 BV bounds    x[14]
 BV bounds    x[15]
 BV bounds    x[16]
 BV bounds    x[17]
 BV bounds    x[18]
 BV bounds    x[19]
 BV bounds    x[20]
ENDATA
